Solving original (integer) problem with strategy gdp.hull...
--- Job model.gms Start 02/15/26 23:44:58 52.2.0 d8e408be LEX-LEG x86 64bit/Linux
--- Applying:
    /package/gams/52.2/gmsprmun.txt
--- GAMS Parameters defined
    Input /local/scratch/a/sgusev/repos/k_means/data/gams_scip_gdp.hull/no_mode/2026-02-15_23-44-58/original/model.gms
    Output /local/scratch/a/sgusev/repos/k_means/data/gams_scip_gdp.hull/no_mode/2026-02-15_23-44-58/original/output.lst
    ScrDir /local/scratch/a/sgusev/repos/k_means/data/gams_scip_gdp.hull/no_mode/2026-02-15_23-44-58/original/225a/
    SysDir /package/gams/52.2/
    CurDir /local/scratch/a/sgusev/repos/k_means/data/gams_scip_gdp.hull/no_mode/2026-02-15_23-44-58/original/
    LogOption 3
    AppendLog 1
Licensee: David Bernal / SECQUOIA Research Group         G251008+0003Ac-GEN
          Purdue University, Davidson School of Chemical EngineeringDCE4838
          225a/gamslice.dat
          5a82958a-fbca-4a23
          node:66820903 mem:995 cores:48 ipport:39799 v:2                  
          Evaluation license: Not for commercial or production use
          The time-limited license stops working on : Jun 30, 2027
System information: 48 physical cores and 995 Gb physical memory detected
GAMS 52.2.0   Copyright (C) 1987-2025 GAMS Development. All rights reserved
--- Starting compilation
--- model.gms(2785) 2 Mb
--- $echo File /local/scratch/a/sgusev/repos/k_means/data/gams_scip_gdp.hull/no_mode/2026-02-15_23-44-58/original/scip.opt
--- model.gms(4105) 2 Mb
--- Starting execution: elapsed 0:00:00.016
--- model.gms(2795) 3 Mb
--- Generating MINLP model GAMS_MODEL
--- model.gms(2799) 5 Mb
---   844 rows  409 columns  2,047 non-zeroes
---   1,920 nl-code  240 nl-non-zeroes
---   48 discrete-columns
--- Range statistics (absolute non-zero finite values)
--- RHS       [min, max] : [ 2.344E-05, 1.000E+00] - Zero values observed as well
--- Bound     [min, max] : [ 1.000E+00, 7.200E+01] - Zero values observed as well
--- Matrix    [min, max] : [ 1.913E-02, 7.200E+01]
--- model.gms(2799) 3 Mb
--- Executing SCIP (Solvelink=5): elapsed 0:00:00.022

SCIP             52.2.0 d8e408be Dec 8, 2025           LEG x86 64bit/Linux    
SCIP version 9.2.4 (a94f778ac8)
Copyright (c) 2002-2025 Zuse Institute Berlin (ZIB)

External libraries: 
  CPLEX 22.1.2.0       Linear Programming Solver developed by IBM (www.cplex.com)
  CppAD 20180000.0     Algorithmic Differentiation of C++ algorithms developed by B. Bell (github.com/coin-or/CppAD)
  PaPILO 2.4.4         parallel presolve for integer and linear optimization (github.com/scipopt/papilo) (built with TBB) [GitHash: 7c826d50]
  Nauty 2.8.9          Computing Graph Automorphism Groups by Brendan D. McKay (users.cecs.anu.edu.au/~bdm/nauty)
  sassy 1.1            Symmetry preprocessor by Markus Anders (github.com/markusa4/sassy)
  Ipopt 3.14.19        Interior Point Optimizer developed by A. Waechter et.al. (github.com/coin-or/Ipopt)

reading option file /local/scratch/a/sgusev/repos/k_means/data/gams_scip_gdp.hull/no_mode/2026-02-15_23-44-58/original/scip.opt
non-default parameter settings:
limits/time = 300
limits/gap = 1e-06
limits/absgap = 1e-10
lp/threads = 1
misc/printreason = FALSE
numerics/dualfeastol = 1e-06
parallel/maxnthreads = 1
nlpi/ipopt/linear_solver = "ma27"
nlpi/ipopt/linear_system_scaling = "mc19"

original problem has 408 variables (48 bin, 0 int, 360 cont) and 843 constraints

all 1 solutions given by solution candidate storage are infeasible

presolving:
(round 1, fast)       12 del vars, 0 del conss, 0 add conss, 0 chg bounds, 0 chg sides, 0 chg coeffs, 0 upgd conss, 0 impls, 12 clqs
(round 2, fast)       12 del vars, 0 del conss, 0 add conss, 0 chg bounds, 12 chg sides, 0 chg coeffs, 0 upgd conss, 0 impls, 12 clqs
(round 3, exhaustive) 12 del vars, 0 del conss, 0 add conss, 0 chg bounds, 12 chg sides, 0 chg coeffs, 636 upgd conss, 0 impls, 12 clqs
   (0.1s) probing cycle finished: starting next cycle
   (0.1s) symmetry computation started: requiring (bin +, int +, cont +), (fixed: bin -, int -, cont -)
   (0.1s) no symmetry present (symcode time: 0.00)
presolving (4 rounds: 4 fast, 2 medium, 2 exhaustive):
 12 deleted vars, 0 deleted constraints, 0 added constraints, 0 tightened bounds, 0 added holes, 12 changed sides, 0 changed coefficients
 1632 implications, 12 cliques
presolved problem has 396 variables (48 bin, 0 int, 0 impl, 348 cont) and 843 constraints
    624 constraints of type <varbound>
     12 constraints of type <setppc>
    159 constraints of type <linear>
     48 constraints of type <nonlinear>
Presolving Time: 0.06

 time | node  | left  |LP iter|LP it/n|mem/heur|mdpt |vars |cons |rows |cuts |sepa|confs|strbr|  dualbound   | primalbound  |  gap   | compl. 
  0.1s|     1 |     0 |   677 |     - |    15M |   0 |1404 | 843 |2271 |   0 |  0 |   0 |   0 | 0.000000e+00 |      --      |    Inf | unknown
p 0.2s|     1 |     0 |   712 |     - |  clique|   0 |1404 | 843 |2271 |   0 |  0 |   0 |   0 | 0.000000e+00 | 1.102552e+01 |    Inf | unknown
  0.2s|     1 |     0 |   940 |     - |    16M |   0 |1404 | 843 |2328 |  57 |  1 |   0 |   0 | 0.000000e+00 | 1.102552e+01 |    Inf | unknown
  0.2s|     1 |     0 |   940 |     - |    16M |   0 |1404 | 843 |2316 |  57 |  1 |   0 |   0 | 0.000000e+00 | 1.102552e+01 |    Inf | unknown
  0.2s|     1 |     0 |  1082 |     - |    16M |   0 |1404 | 843 |2363 | 104 |  2 |   0 |   0 | 0.000000e+00 | 1.102552e+01 |    Inf | unknown
  0.2s|     1 |     0 |  1166 |     - |    16M |   0 |1404 | 843 |2418 | 159 |  3 |   0 |   0 | 0.000000e+00 | 1.102552e+01 |    Inf | unknown
  0.3s|     1 |     0 |  1231 |     - |    17M |   0 |1404 | 843 |2458 | 199 |  4 |   0 |   0 | 0.000000e+00 | 1.102552e+01 |    Inf | unknown
  0.3s|     1 |     0 |  1245 |     - |    17M |   0 |1404 | 843 |2493 | 234 |  5 |   0 |   0 | 0.000000e+00 | 1.102552e+01 |    Inf | unknown
  0.3s|     1 |     0 |  1281 |     - |    17M |   0 |1404 | 843 |2526 | 267 |  6 |   0 |   0 | 0.000000e+00 | 1.102552e+01 |    Inf | unknown
  0.3s|     1 |     0 |  1331 |     - |    18M |   0 |1404 | 843 |2565 | 306 |  7 |   0 |   0 | 0.000000e+00 | 1.102552e+01 |    Inf | unknown
  0.3s|     1 |     0 |  1439 |     - |    18M |   0 |1404 | 843 |2594 | 335 |  8 |   0 |   0 | 0.000000e+00 | 1.102552e+01 |    Inf | unknown
  0.3s|     1 |     0 |  1503 |     - |    18M |   0 |1404 | 843 |2626 | 367 |  9 |   0 |   0 | 0.000000e+00 | 1.102552e+01 |    Inf | unknown
  0.3s|     1 |     0 |  1608 |     - |    19M |   0 |1404 | 843 |2662 | 403 | 10 |   0 |   0 | 0.000000e+00 | 1.102552e+01 |    Inf | unknown
  0.3s|     1 |     0 |  1659 |     - |    20M |   0 |1404 | 843 |1523 | 435 | 11 |   0 |   0 | 0.000000e+00 | 1.102552e+01 |    Inf | unknown
  0.3s|     1 |     0 |  1721 |     - |    20M |   0 |1404 | 843 |1560 | 472 | 12 |   0 |   0 | 0.000000e+00 | 1.102552e+01 |    Inf | unknown
 time | node  | left  |LP iter|LP it/n|mem/heur|mdpt |vars |cons |rows |cuts |sepa|confs|strbr|  dualbound   | primalbound  |  gap   | compl. 
  0.4s|     1 |     0 |  1772 |     - |    20M |   0 |1404 | 843 |1595 | 507 | 13 |   0 |   0 | 0.000000e+00 | 1.102552e+01 |    Inf | unknown
  1.1s|     1 |     0 | 13312 |     - |    20M |   0 |1404 | 831 |1595 | 507 | 13 |   0 |   0 | 0.000000e+00 | 1.102552e+01 |    Inf | unknown
  1.1s|     1 |     0 | 13339 |     - |    21M |   0 |1404 | 831 |1613 | 525 | 14 |   0 |   0 | 0.000000e+00 | 1.102552e+01 |    Inf | unknown
  1.2s|     1 |     0 | 13348 |     - |    21M |   0 |1404 | 831 |1645 | 557 | 15 |   0 |   0 | 0.000000e+00 | 1.102552e+01 |    Inf | unknown
  1.2s|     1 |     0 | 13397 |     - |    21M |   0 |1404 | 831 |1455 | 574 | 16 |   0 |   0 | 0.000000e+00 | 1.102552e+01 |    Inf | unknown
  1.2s|     1 |     0 | 13420 |     - |    21M |   0 |1404 | 831 |1469 | 588 | 17 |   0 |   0 | 0.000000e+00 | 1.102552e+01 |    Inf | unknown
  1.2s|     1 |     0 | 13487 |     - |    21M |   0 |1404 | 831 |1490 | 609 | 18 |   0 |   0 | 0.000000e+00 | 1.102552e+01 |    Inf | unknown
  1.2s|     1 |     0 | 13556 |     - |    21M |   0 |1404 | 831 |1526 | 645 | 19 |   0 |   0 | 0.000000e+00 | 1.102552e+01 |    Inf | unknown
  1.2s|     1 |     0 | 13591 |     - |    22M |   0 |1404 | 831 |1551 | 670 | 20 |   0 |   0 | 0.000000e+00 | 1.102552e+01 |    Inf | unknown
  1.2s|     1 |     0 | 13627 |     - |    22M |   0 |1404 | 831 |1576 | 695 | 21 |   0 |   0 | 0.000000e+00 | 1.102552e+01 |    Inf | unknown
  1.2s|     1 |     0 | 13645 |     - |    22M |   0 |1404 | 831 |1402 | 711 | 22 |   0 |   0 | 0.000000e+00 | 1.102552e+01 |    Inf | unknown
  1.3s|     1 |     0 | 13651 |     - |    22M |   0 |1404 | 831 |1411 | 720 | 23 |   0 |   0 | 0.000000e+00 | 1.102552e+01 |    Inf | unknown
  1.3s|     1 |     0 | 13656 |     - |    22M |   0 |1404 | 831 |1419 | 728 | 24 |   0 |   0 | 0.000000e+00 | 1.102552e+01 |    Inf | unknown
L 1.4s|     1 |     0 | 13709 |     - |    rens|   0 |1404 | 831 |1419 | 728 | 24 |   0 |   0 | 0.000000e+00 | 8.936268e+00 |    Inf | unknown
  1.7s|     1 |     0 | 13711 |     - |    24M |   0 |1404 | 831 |1419 | 728 | 24 |   0 |   0 | 0.000000e+00 | 8.936268e+00 |    Inf | unknown
 time | node  | left  |LP iter|LP it/n|mem/heur|mdpt |vars |cons |rows |cuts |sepa|confs|strbr|  dualbound   | primalbound  |  gap   | compl. 
  1.7s|     1 |     0 | 13721 |     - |    24M |   0 |1404 | 831 |1429 | 738 | 25 |   0 |   0 | 0.000000e+00 | 8.936268e+00 |    Inf | unknown
  1.7s|     1 |     0 | 13754 |     - |    24M |   0 |1404 | 831 |1343 | 738 | 26 |   0 |   1 | 0.000000e+00 | 8.936268e+00 |    Inf | unknown
  1.7s|     1 |     0 | 13777 |     - |    24M |   0 |1404 | 831 |1354 | 749 | 27 |   0 |   1 | 0.000000e+00 | 8.936268e+00 |    Inf | unknown
  1.7s|     1 |     0 | 13781 |     - |    24M |   0 |1404 | 831 |1356 | 751 | 28 |   0 |   1 | 0.000000e+00 | 8.936268e+00 |    Inf | unknown
  1.7s|     1 |     0 | 13792 |     - |    24M |   0 |1404 | 831 |1356 | 751 | 28 |   0 |   2 | 0.000000e+00 | 8.936268e+00 |    Inf | unknown
  1.8s|     1 |     0 | 13819 |     - |    24M |   0 |1404 | 831 |1375 | 770 | 29 |   0 |   2 | 0.000000e+00 | 8.936268e+00 |    Inf | unknown
  1.8s|     1 |     0 | 13833 |     - |    24M |   0 |1404 | 831 |1377 | 772 | 30 |   0 |   2 | 0.000000e+00 | 8.936268e+00 |    Inf | unknown
  1.8s|     1 |     0 | 13835 |     - |    24M |   0 |1404 | 831 |1243 | 772 | 30 |   0 |   3 | 0.000000e+00 | 8.936268e+00 |    Inf | unknown
  1.8s|     1 |     0 | 13857 |     - |    24M |   0 |1404 | 831 |1276 | 805 | 31 |   0 |   3 | 0.000000e+00 | 8.936268e+00 |    Inf | unknown
  1.8s|     1 |     0 | 13859 |     - |    24M |   0 |1404 | 831 |1278 | 807 | 32 |   0 |   3 | 0.000000e+00 | 8.936268e+00 |    Inf | unknown
  1.8s|     1 |     0 | 13860 |     - |    24M |   0 |1404 | 831 |1278 | 807 | 32 |   0 |   4 | 0.000000e+00 | 8.936268e+00 |    Inf | unknown
  1.8s|     1 |     0 | 13881 |     - |    24M |   0 |1404 | 831 |1304 | 833 | 33 |   0 |   4 | 0.000000e+00 | 8.936268e+00 |    Inf | unknown
  1.8s|     1 |     0 | 13884 |     - |    24M |   0 |1404 | 831 |1306 | 835 | 34 |   0 |   4 | 0.000000e+00 | 8.936268e+00 |    Inf | unknown
  1.8s|     1 |     0 | 13885 |     - |    24M |   0 |1404 | 831 |1277 | 835 | 34 |   0 |   5 | 0.000000e+00 | 8.936268e+00 |    Inf | unknown
  1.8s|     1 |     0 | 13927 |     - |    24M |   0 |1404 | 831 |1298 | 856 | 35 |   0 |   5 | 0.000000e+00 | 8.936268e+00 |    Inf | unknown
 time | node  | left  |LP iter|LP it/n|mem/heur|mdpt |vars |cons |rows |cuts |sepa|confs|strbr|  dualbound   | primalbound  |  gap   | compl. 
  1.8s|     1 |     0 | 13942 |     - |    24M |   0 |1404 | 831 |1309 | 867 | 36 |   0 |   5 | 0.000000e+00 | 8.936268e+00 |    Inf | unknown
  1.8s|     1 |     2 | 13942 |     - |    24M |   0 |1404 | 831 |1309 | 867 | 36 |   0 |   5 | 0.000000e+00 | 8.936268e+00 |    Inf | unknown
L 2.1s|    12 |    13 | 15659 |1226.0 |  subnlp|   7 |1404 | 831 |1621 |2369 | 12 |   0 |  12 | 0.000000e+00 | 8.693359e+00 |    Inf | unknown
L 2.2s|    13 |    14 | 15803 |1135.8 |  subnlp|   7 |1404 | 831 |1518 |2558 |  7 |   0 |  12 | 0.000000e+00 | 8.693359e+00 |    Inf | unknown
d 2.4s|    18 |    19 | 16399 | 836.8 |nlpdivin|   9 |1404 | 831 |1518 |   0 | 11 |   0 |  14 | 0.000000e+00 | 6.066906e+00 |    Inf | unknown
d 5.1s|    92 |    93 | 27879 | 282.5 |nlpdivin|  13 |1404 | 831 |1562 |   0 |  9 |   0 |  46 | 0.000000e+00 | 6.014422e+00 |    Inf | unknown
  5.2s|   100 |   101 | 29286 | 273.9 |    28M |  13 |1404 | 831 |1502 |  13k|  2 |   0 |  46 | 0.000000e+00 | 6.014422e+00 |    Inf | unknown
L 7.8s|   192 |   191 | 45236 | 225.5 |    gins|  19 |1404 | 831 |1630 |  23k|  7 |   0 |  56 | 0.000000e+00 | 4.790178e+00 |    Inf | unknown
  8.1s|   200 |   199 | 46174 | 221.1 |    33M |  19 |1404 | 831 |1572 |  24k|  2 |   0 |  56 | 0.000000e+00 | 4.790178e+00 |    Inf | unknown
 10.8s|   300 |   299 | 60546 | 195.2 |    37M |  19 |1404 | 831 |1497 |  35k|  2 |   0 |  70 | 0.000000e+00 | 4.790178e+00 |    Inf | unknown
 13.7s|   400 |   399 | 75990 | 185.0 |    44M |  20 |1404 | 831 |1494 |  47k|  2 |   0 |  97 | 0.000000e+00 | 4.790178e+00 |    Inf | unknown
 16.7s|   500 |   499 | 93728 | 183.5 |    48M |  22 |1404 | 831 |1745 |  58k| 12 |   0 | 140 | 0.000000e+00 | 4.790178e+00 |    Inf | unknown
 19.3s|   600 |   599 |111181 | 182.0 |    51M |  23 |1404 | 831 |1621 |  68k|  8 |   0 | 161 | 0.000000e+00 | 4.790178e+00 |    Inf | unknown
 22.3s|   700 |   699 |131085 | 184.4 |    55M |  23 |1404 | 831 |1655 |  80k|  4 |   0 | 181 | 0.000000e+00 | 4.790178e+00 |    Inf | unknown
 25.1s|   800 |   799 |148360 | 183.0 |    61M |  23 |1404 | 831 |1552 |  91k|  2 |   0 | 226 | 0.000000e+00 | 4.790178e+00 |    Inf | unknown
 time | node  | left  |LP iter|LP it/n|mem/heur|mdpt |vars |cons |rows |cuts |sepa|confs|strbr|  dualbound   | primalbound  |  gap   | compl. 
 28.4s|   900 |   899 |165793 | 182.0 |    65M |  26 |1404 | 831 |1641 | 103k| 10 |   0 | 232 | 0.000000e+00 | 4.790178e+00 |    Inf | unknown
 31.2s|  1000 |   999 |183868 | 181.9 |    70M |  26 |1404 | 831 |1713 | 114k|  2 |   0 | 250 | 0.000000e+00 | 4.790178e+00 |    Inf | unknown
 34.0s|  1100 |  1099 |198684 | 178.8 |    73M |  29 |1404 | 831 |1552 | 124k|  3 |   0 | 270 | 0.000000e+00 | 4.790178e+00 |    Inf | unknown
 36.5s|  1200 |  1195 |213879 | 176.6 |    77M |  29 |1404 | 831 |1632 | 133k|  3 |   0 | 288 | 0.000000e+00 | 4.790178e+00 |    Inf | unknown
 39.0s|  1300 |  1293 |230046 | 175.4 |    81M |  29 |1404 | 831 |1839 | 143k| 10 |   0 | 295 | 0.000000e+00 | 4.790178e+00 |    Inf | unknown
 41.6s|  1400 |  1393 |244422 | 173.2 |    84M |  30 |1404 | 831 |1786 | 152k|  2 |   0 | 333 | 0.000000e+00 | 4.790178e+00 |    Inf | unknown
 44.4s|  1500 |  1491 |262549 | 173.7 |    88M |  31 |1404 | 831 |1712 | 163k|  5 |   0 | 356 | 0.000000e+00 | 4.790178e+00 |    Inf | unknown
 47.0s|  1600 |  1589 |276280 | 171.4 |    93M |  31 |1404 | 831 |1729 | 172k| 12 |   0 | 366 | 0.000000e+00 | 4.790178e+00 |    Inf | unknown
 49.8s|  1700 |  1681 |291916 | 170.5 |    95M |  31 |1404 | 831 |1683 | 182k|  8 |   0 | 408 | 0.000000e+00 | 4.790178e+00 |    Inf | unknown
 52.6s|  1800 |  1779 |308741 | 170.4 |    98M |  31 |1404 | 831 |1799 | 192k| 12 |   0 | 426 | 0.000000e+00 | 4.790178e+00 |    Inf | unknown
 55.1s|  1900 |  1877 |322776 | 168.8 |   102M |  31 |1404 | 831 |1738 | 200k|  2 |   0 | 446 | 0.000000e+00 | 4.790178e+00 |    Inf | unknown
 57.8s|  2000 |  1971 |341314 | 169.7 |   105M |  31 |1404 | 831 |1867 | 212k|  8 |   0 | 474 | 0.000000e+00 | 4.790178e+00 |    Inf | unknown
 60.6s|  2100 |  2067 |358511 | 169.8 |   110M |  32 |1404 | 831 |1825 | 224k|  9 |   0 | 513 | 0.000000e+00 | 4.790178e+00 |    Inf | unknown
 63.4s|  2200 |  2159 |375387 | 169.7 |   113M |  32 |1404 | 831 |1484 | 234k|  9 |   0 | 536 | 0.000000e+00 | 4.790178e+00 |    Inf | unknown
 66.2s|  2300 |  2251 |390017 | 168.7 |   116M |  32 |1404 | 831 |1854 | 244k| 10 |   0 | 558 | 0.000000e+00 | 4.790178e+00 |    Inf | unknown
 time | node  | left  |LP iter|LP it/n|mem/heur|mdpt |vars |cons |rows |cuts |sepa|confs|strbr|  dualbound   | primalbound  |  gap   | compl. 
 68.7s|  2400 |  2339 |405439 | 168.1 |   119M |  32 |1404 | 831 |1808 | 254k|  9 |   0 | 580 | 2.986572e-08 | 4.790178e+00 |  Large | unknown
 71.2s|  2500 |  2429 |421204 | 167.7 |   121M |  32 |1404 | 831 |1585 | 264k|  2 |   0 | 588 | 2.986572e-08 | 4.790178e+00 |  Large | unknown
 73.6s|  2600 |  2525 |436870 | 167.3 |   124M |  32 |1404 | 831 |1749 | 274k|  6 |   0 | 596 | 1.949476e-07 | 4.790178e+00 |  Large | unknown
 76.2s|  2700 |  2625 |452388 | 166.8 |   127M |  32 |1404 | 831 |1730 | 284k|  9 |   0 | 609 | 8.381427e-06 | 4.790178e+00 |  Large | unknown
 78.8s|  2800 |  2719 |465338 | 165.5 |   129M |  32 |1404 | 831 |1691 | 292k|  2 |   0 | 617 | 8.381427e-06 | 4.790178e+00 |  Large | unknown
 81.6s|  2900 |  2815 |479177 | 164.5 |   134M |  36 |1404 | 831 |1501 | 301k|  2 |   0 | 623 | 5.391864e-05 | 4.790178e+00 |  Large | unknown
 84.0s|  3000 |  2911 |493740 | 163.9 |   136M |  36 |1404 | 831 |1772 | 310k|  3 |   0 | 634 | 9.557222e-05 | 4.790178e+00 |  Large | unknown
 86.7s|  3100 |  3005 |508344 | 163.3 |   139M |  36 |1404 | 831 |2024 | 319k| 11 |   0 | 644 | 9.557222e-05 | 4.790178e+00 |  Large | unknown
d88.3s|  3166 |  2994 |517297 | 162.8 |adaptive|  36 |1404 | 831 |1809 | 325k| 13 |   0 | 654 | 5.927000e-03 | 4.310535e+00 |  Large |   1.19%
 89.1s|  3200 |  3016 |521268 | 162.3 |   141M |  36 |1404 | 831 |1860 | 328k| 11 |   0 | 657 | 5.927000e-03 | 4.310535e+00 |  Large |   1.22%
 91.7s|  3300 |  3104 |535838 | 161.8 |   145M |  36 |1404 | 831 |1589 | 336k|  2 |   0 | 679 | 5.927000e-03 | 4.310535e+00 |  Large |   1.28%
 93.8s|  3400 |  3168 |548334 | 160.7 |   146M |  36 |1404 | 831 |1757 | 343k|  2 |   0 | 687 | 7.464905e-03 | 4.310535e+00 |  Large |   1.37%
 96.1s|  3500 |  3242 |561155 | 159.8 |   149M |  36 |1404 | 831 |1764 | 351k|  3 |   0 | 718 | 2.848667e-02 | 4.310535e+00 |  Large |   1.38%
 98.7s|  3600 |  3320 |575055 | 159.2 |   152M |  36 |1404 | 831 |1731 | 361k|  8 |   0 | 727 | 2.848667e-02 | 4.310535e+00 |  Large |   1.40%
  101s|  3700 |  3398 |587278 | 158.2 |   156M |  36 |1404 | 831 |1626 | 368k|  3 |   0 | 730 | 2.848667e-02 | 4.310535e+00 |  Large |   1.43%
 time | node  | left  |LP iter|LP it/n|mem/heur|mdpt |vars |cons |rows |cuts |sepa|confs|strbr|  dualbound   | primalbound  |  gap   | compl. 
  103s|  3800 |  3482 |600246 | 157.4 |   158M |  36 |1404 | 831 |1881 | 376k|  8 |   0 | 732 | 2.848670e-02 | 4.310535e+00 |  Large |   1.46%
  105s|  3900 |  3564 |612525 | 156.5 |   160M |  36 |1404 | 831 |1727 | 383k|  3 |   0 | 745 | 2.848675e-02 | 4.310535e+00 |  Large |   1.46%
  108s|  4000 |  3648 |625272 | 155.8 |   162M |  36 |1404 | 831 |1788 | 392k|  9 |   0 | 750 | 3.585587e-02 | 4.310535e+00 |  Large |   1.48%
  110s|  4100 |  3732 |638304 | 155.2 |   165M |  36 |1404 | 831 |1760 | 401k| 11 |   0 | 752 | 3.585587e-02 | 4.310535e+00 |  Large |   1.48%
  113s|  4200 |  3818 |653380 | 155.1 |   168M |  36 |1404 | 831 |1852 | 410k|  9 |   0 | 762 | 3.603051e-02 | 4.310535e+00 |  Large |   1.51%
  115s|  4300 |  3906 |665368 | 154.3 |   171M |  36 |1404 | 831 |1898 | 419k| 13 |   0 | 765 | 3.603051e-02 | 4.310535e+00 |  Large |   1.54%
  117s|  4400 |  3994 |677499 | 153.5 |   175M |  41 |1404 | 831 |1905 | 427k|  7 |   0 | 771 | 3.603051e-02 | 4.310535e+00 |  Large |   1.54%
  120s|  4500 |  4060 |687814 | 152.4 |   177M |  41 |1404 | 831 |1863 | 434k|  0 |   0 | 782 | 3.603051e-02 | 4.310535e+00 |  Large |   1.59%
  122s|  4600 |  4150 |699288 | 151.6 |   180M |  41 |1404 | 831 |1683 | 442k|  2 |   0 | 787 | 3.603056e-02 | 4.310535e+00 |  Large |   1.59%
  124s|  4700 |  4220 |709345 | 150.5 |   184M |  41 |1404 | 831 |1645 | 449k|  2 |   0 | 789 | 3.603058e-02 | 4.310535e+00 |  Large |   1.60%
L 126s|  4800 |  3060 |721325 | 149.9 |  subnlp|  41 |1404 | 831 |1812 | 456k|  3 |   0 | 791 | 5.958570e-02 | 2.761826e+00 |4535.05%|   4.54%
  128s|  4900 |  3098 |730963 | 148.8 |   186M |  41 |1404 | 831 |1563 | 463k|  9 |   0 | 793 | 7.959813e-02 | 2.761826e+00 |3369.71%|   4.63%
  130s|  5000 |  3160 |741009 | 147.8 |   187M |  41 |1404 | 831 |1672 | 469k|  3 |   0 | 794 | 8.070941e-02 | 2.761826e+00 |3321.94%|   4.67%
  132s|  5100 |  3208 |750015 | 146.7 |   187M |  41 |1404 | 831 |1744 | 475k|  3 |   1 | 796 | 8.070950e-02 | 2.761826e+00 |3321.93%|   4.69%
  134s|  5200 |  3250 |760725 | 145.9 |   187M |  41 |1404 | 831 |1528 | 482k|  2 |   3 | 806 | 8.070990e-02 | 2.761826e+00 |3321.92%|   4.90%
 time | node  | left  |LP iter|LP it/n|mem/heur|mdpt |vars |cons |rows |cuts |sepa|confs|strbr|  dualbound   | primalbound  |  gap   | compl. 
  136s|  5300 |  3308 |774301 | 145.7 |   187M |  41 |1404 | 831 |1829 | 489k|  8 |   4 | 809 | 8.070990e-02 | 2.761826e+00 |3321.92%|   4.92%
  137s|  5400 |  3336 |783043 | 144.6 |   187M |  41 |1404 | 831 |1739 | 493k|  3 |   4 | 811 | 8.070990e-02 | 2.761826e+00 |3321.92%|   4.97%
  139s|  5500 |  3382 |794092 | 144.0 |   188M |  41 |1404 | 831 |1740 | 499k|  4 |   5 | 815 | 8.250008e-02 | 2.761826e+00 |3247.66%|   4.99%
  141s|  5600 |  3410 |804585 | 143.3 |   188M |  41 |1404 | 831 |1728 | 505k|  2 |   5 | 815 | 1.243739e-01 | 2.761826e+00 |2120.58%|   5.03%
  143s|  5700 |  3440 |814289 | 142.5 |   190M |  41 |1404 | 831 |1721 | 510k|  9 |   5 | 817 | 1.243739e-01 | 2.761826e+00 |2120.58%|   5.14%
  145s|  5800 |  3478 |825408 | 142.0 |   190M |  41 |1404 | 831 |1906 | 516k|  2 |   6 | 824 | 1.480246e-01 | 2.761826e+00 |1765.79%|   5.18%
  147s|  5900 |  3516 |838780 | 141.8 |   193M |  41 |1404 | 831 |1718 | 523k|  2 |   6 | 830 | 1.620827e-01 | 2.761826e+00 |1603.96%|   5.25%
  148s|  6000 |  3560 |849604 | 141.3 |   193M |  41 |1404 | 831 |1594 | 529k|  2 |   6 | 832 | 1.798902e-01 | 2.761826e+00 |1435.28%|   5.26%
  150s|  6100 |  3598 |858024 | 140.3 |   193M |  41 |1404 | 831 |1671 | 534k|  2 |   8 | 834 | 1.798902e-01 | 2.761826e+00 |1435.28%|   5.35%
  152s|  6200 |  3634 |870411 | 140.1 |   194M |  41 |1404 | 831 |1711 | 540k|  4 |   8 | 836 | 1.808621e-01 | 2.761826e+00 |1427.03%|   5.39%
L 153s|  6292 |  2656 |879831 | 139.5 |    gins|  41 |1404 | 831 |1659 | 544k|  2 |   8 | 839 | 1.868502e-01 | 2.185459e+00 |1069.63%|  10.20%
  154s|  6300 |  2658 |881002 | 139.5 |   194M |  41 |1404 | 831 |1707 | 545k|  3 |   8 | 839 | 1.868502e-01 | 2.185459e+00 |1069.63%|  10.23%
  155s|  6400 |  2680 |889424 | 138.7 |   194M |  41 |1404 | 831 |1682 | 548k|  2 |   8 | 842 | 1.927017e-01 | 2.185459e+00 |1034.11%|  10.39%
  157s|  6500 |  2702 |898506 | 137.9 |   194M |  41 |1404 | 831 |1741 | 554k|  7 |   8 | 843 | 1.927017e-01 | 2.185459e+00 |1034.11%|  10.51%
  158s|  6600 |  2724 |907908 | 137.3 |   194M |  41 |1404 | 831 |1644 | 558k|  2 |   9 | 845 | 1.927018e-01 | 2.185459e+00 |1034.11%|  10.72%
 time | node  | left  |LP iter|LP it/n|mem/heur|mdpt |vars |cons |rows |cuts |sepa|confs|strbr|  dualbound   | primalbound  |  gap   | compl. 
  160s|  6700 |  2742 |919766 | 137.0 |   194M |  41 |1404 | 831 |1630 | 563k|  3 |   9 | 855 | 2.079121e-01 | 2.185459e+00 | 951.15%|  10.83%
  161s|  6800 |  2760 |928292 | 136.2 |   194M |  41 |1404 | 831 |1653 | 568k|  2 |   9 | 856 | 2.272367e-01 | 2.185459e+00 | 861.75%|  10.87%
  163s|  6900 |  2782 |936880 | 135.5 |   194M |  41 |1404 | 831 |1637 | 572k|  3 |   9 | 859 | 2.370995e-01 | 2.185459e+00 | 821.75%|  10.96%
  164s|  7000 |  2814 |946254 | 134.9 |   194M |  41 |1404 | 831 |1604 | 577k|  3 |   9 | 861 | 2.469197e-01 | 2.185459e+00 | 785.09%|  11.10%
  166s|  7100 |  2842 |954215 | 134.1 |   194M |  41 |1404 | 831 |1695 | 582k| 12 |   9 | 865 | 2.502556e-01 | 2.185459e+00 | 773.29%|  11.25%
  167s|  7200 |  2862 |962873 | 133.4 |   195M |  41 |1404 | 831 |1702 | 587k|  2 |   9 | 871 | 2.543390e-01 | 2.185459e+00 | 759.27%|  11.30%
  169s|  7300 |  2890 |971196 | 132.8 |   195M |  41 |1404 | 831 |1715 | 591k| 11 |   9 | 873 | 2.704781e-01 | 2.185459e+00 | 708.00%|  11.43%
  171s|  7400 |  2922 |980120 | 132.2 |   195M |  41 |1404 | 831 |1723 | 596k|  2 |   9 | 877 | 2.748147e-01 | 2.185459e+00 | 695.25%|  11.49%
  173s|  7500 |  2954 |989306 | 131.6 |   195M |  41 |1404 | 831 |1789 | 601k|  7 |   9 | 878 | 2.748147e-01 | 2.185459e+00 | 695.25%|  11.60%
  174s|  7600 |  2976 |998095 | 131.1 |   196M |  41 |1404 | 831 |1970 | 605k| 10 |   9 | 883 | 2.899305e-01 | 2.185459e+00 | 653.79%|  11.90%
  175s|  7700 |  2990 |  1007k| 130.6 |   196M |  41 |1404 | 831 |1740 | 610k|  2 |   9 | 884 | 2.960874e-01 | 2.185459e+00 | 638.11%|  11.92%
  177s|  7800 |  3004 |  1015k| 129.9 |   196M |  41 |1404 | 831 |1645 | 614k|  2 |   9 | 890 | 3.042498e-01 | 2.185459e+00 | 618.31%|  12.05%
  179s|  7900 |  3034 |  1023k| 129.3 |   196M |  41 |1404 | 831 |1632 | 619k|  2 |   9 | 890 | 3.133246e-01 | 2.185459e+00 | 597.51%|  12.11%
  180s|  8000 |  3060 |  1031k| 128.7 |   199M |  41 |1404 | 831 |1767 | 623k|  9 |  10 | 894 | 3.283964e-01 | 2.185459e+00 | 565.49%|  12.25%
  182s|  8100 |  3076 |  1040k| 128.1 |   199M |  41 |1404 | 831 |1539 | 627k|  4 |  10 | 894 | 3.283964e-01 | 2.185459e+00 | 565.49%|  12.40%
 time | node  | left  |LP iter|LP it/n|mem/heur|mdpt |vars |cons |rows |cuts |sepa|confs|strbr|  dualbound   | primalbound  |  gap   | compl. 
  183s|  8200 |  3104 |  1050k| 127.9 |   200M |  41 |1404 | 831 |1690 | 633k| 10 |  10 | 896 | 3.283965e-01 | 2.185459e+00 | 565.49%|  12.48%
  185s|  8300 |  3138 |  1060k| 127.6 |   200M |  41 |1404 | 831 |1906 | 638k|  7 |  10 | 903 | 3.297763e-01 | 2.185459e+00 | 562.71%|  12.54%
  186s|  8400 |  3158 |  1068k| 126.9 |   200M |  41 |1404 | 831 |1740 | 642k|  2 |  10 | 903 | 3.404686e-01 | 2.185459e+00 | 541.90%|  12.67%
  188s|  8500 |  3184 |  1075k| 126.3 |   200M |  41 |1404 | 831 |1611 | 646k|  1 |  10 | 905 | 3.450157e-01 | 2.185459e+00 | 533.44%|  12.83%
  190s|  8600 |  3224 |  1084k| 125.9 |   200M |  41 |1404 | 831 |1718 | 651k|  2 |  12 | 907 | 3.644252e-01 | 2.185459e+00 | 499.70%|  12.93%
  191s|  8700 |  3256 |  1093k| 125.5 |   201M |  41 |1404 | 831 |1636 | 656k|  1 |  12 | 909 | 3.644252e-01 | 2.185459e+00 | 499.70%|  13.03%
  193s|  8800 |  3284 |  1101k| 125.0 |   202M |  41 |1404 | 831 |1621 | 660k| 10 |  13 | 913 | 3.755654e-01 | 2.185459e+00 | 481.91%|  13.21%
  194s|  8900 |  3300 |  1109k| 124.4 |   202M |  41 |1404 | 831 |1712 | 664k|  0 |  13 | 915 | 3.763718e-01 | 2.185459e+00 | 480.66%|  13.27%
  196s|  9000 |  3320 |  1116k| 123.9 |   203M |  41 |1404 | 831 |1551 | 669k|  4 |  14 | 919 | 3.770711e-01 | 2.185459e+00 | 479.59%|  13.45%
  197s|  9100 |  3336 |  1123k| 123.3 |   203M |  41 |1404 | 831 |1625 | 672k|  0 |  14 | 919 | 3.770711e-01 | 2.185459e+00 | 479.59%|  13.50%
  198s|  9200 |  3356 |  1131k| 122.7 |   204M |  41 |1404 | 831 |1517 | 676k|  2 |  14 | 919 | 3.770711e-01 | 2.185459e+00 | 479.59%|  13.51%
  200s|  9300 |  3388 |  1140k| 122.4 |   204M |  41 |1404 | 831 |1689 | 680k|  3 |  14 | 921 | 3.777871e-01 | 2.185459e+00 | 478.49%|  13.71%
  202s|  9400 |  3422 |  1151k| 122.2 |   206M |  41 |1404 | 831 |1794 | 686k|  2 |  14 | 923 | 3.777871e-01 | 2.185459e+00 | 478.49%|  13.80%
  203s|  9500 |  3444 |  1160k| 122.0 |   206M |  41 |1404 | 831 |1672 | 691k|  2 |  14 | 929 | 3.843081e-01 | 2.185459e+00 | 468.67%|  13.91%
  205s|  9600 |  3478 |  1168k| 121.5 |   208M |  41 |1404 | 831 |1680 | 695k|  2 |  15 | 929 | 3.930543e-01 | 2.185459e+00 | 456.02%|  13.93%
 time | node  | left  |LP iter|LP it/n|mem/heur|mdpt |vars |cons |rows |cuts |sepa|confs|strbr|  dualbound   | primalbound  |  gap   | compl. 
  206s|  9700 |  3510 |  1176k| 121.1 |   210M |  41 |1404 | 831 |1593 | 700k|  2 |  15 | 934 | 3.940344e-01 | 2.185459e+00 | 454.64%|  14.03%
  208s|  9800 |  3538 |  1184k| 120.7 |   211M |  41 |1404 | 831 |1737 | 704k| 11 |  15 | 935 | 3.999161e-01 | 2.185459e+00 | 446.48%|  14.15%
  209s|  9900 |  3570 |  1192k| 120.3 |   212M |  41 |1404 | 831 |1444 | 709k|  2 |  15 | 935 | 4.108121e-01 | 2.185459e+00 | 431.99%|  14.23%
  211s| 10000 |  3598 |  1200k| 119.9 |   213M |  41 |1404 | 831 |1704 | 713k|  2 |  15 | 937 | 4.108121e-01 | 2.185459e+00 | 431.99%|  14.24%
  212s| 10100 |  3622 |  1210k| 119.7 |   213M |  41 |1404 | 831 |1856 | 719k|  2 |  15 | 937 | 4.108121e-01 | 2.185459e+00 | 431.99%|  14.32%
  214s| 10200 |  3644 |  1219k| 119.4 |   214M |  41 |1404 | 831 |1809 | 723k|  4 |  15 | 941 | 4.156887e-01 | 2.185459e+00 | 425.74%|  14.33%
  216s| 10300 |  3674 |  1228k| 119.1 |   216M |  41 |1404 | 831 |1898 | 729k| 10 |  15 | 942 | 4.156887e-01 | 2.185459e+00 | 425.74%|  14.36%
  217s| 10400 |  3684 |  1238k| 118.9 |   217M |  41 |1404 | 831 |1856 | 733k|  2 |  16 | 943 | 4.168113e-01 | 2.185459e+00 | 424.33%|  14.41%
  219s| 10500 |  3712 |  1249k| 118.8 |   221M |  41 |1404 | 831 |1723 | 738k|  2 |  17 | 946 | 4.168113e-01 | 2.185459e+00 | 424.33%|  14.61%
  221s| 10600 |  3744 |  1259k| 118.6 |   222M |  41 |1404 | 831 |1627 | 744k|  2 |  18 | 952 | 4.263214e-01 | 2.185459e+00 | 412.63%|  14.80%
  222s| 10700 |  3780 |  1267k| 118.3 |   223M |  41 |1404 | 831 |1552 | 748k|  2 |  18 | 952 | 4.263214e-01 | 2.185459e+00 | 412.63%|  14.88%
  224s| 10800 |  3808 |  1276k| 118.0 |   223M |  41 |1404 | 831 |1797 | 752k|  3 |  18 | 953 | 4.263214e-01 | 2.185459e+00 | 412.63%|  14.96%
  225s| 10900 |  3818 |  1285k| 117.7 |   223M |  41 |1404 | 831 |1687 | 756k|  2 |  18 | 954 | 4.423393e-01 | 2.185459e+00 | 394.07%|  15.08%
  227s| 11000 |  3842 |  1293k| 117.4 |   225M |  41 |1404 | 831 |1694 | 761k|  4 |  19 | 959 | 4.437908e-01 | 2.185459e+00 | 392.45%|  15.13%
  228s| 11100 |  3868 |  1301k| 117.0 |   226M |  41 |1404 | 831 |1779 | 764k|  9 |  20 | 961 | 4.439294e-01 | 2.185459e+00 | 392.30%|  15.18%
 time | node  | left  |LP iter|LP it/n|mem/heur|mdpt |vars |cons |rows |cuts |sepa|confs|strbr|  dualbound   | primalbound  |  gap   | compl. 
  230s| 11200 |  3888 |  1310k| 116.8 |   227M |  41 |1404 | 831 |1761 | 769k|  3 |  21 | 964 | 4.514800e-01 | 2.185459e+00 | 384.07%|  15.34%
  231s| 11300 |  3902 |  1318k| 116.5 |   228M |  41 |1404 | 831 |1675 | 773k|  5 |  22 | 968 | 4.545697e-01 | 2.185459e+00 | 380.78%|  15.57%
  232s| 11400 |  3924 |  1327k| 116.3 |   228M |  41 |1404 | 831 |1607 | 778k|  3 |  22 | 968 | 4.545697e-01 | 2.185459e+00 | 380.78%|  15.70%
  234s| 11500 |  3944 |  1334k| 115.9 |   229M |  41 |1404 | 831 |1577 | 782k|  8 |  23 | 968 | 4.594786e-01 | 2.185459e+00 | 375.64%|  15.79%
  236s| 11600 |  3980 |  1341k| 115.5 |   229M |  41 |1404 | 831 |1715 | 786k| 11 |  24 | 971 | 4.632373e-01 | 2.185459e+00 | 371.78%|  15.87%
  237s| 11700 |  3998 |  1348k| 115.1 |   231M |  41 |1404 | 831 |1741 | 791k| 11 |  24 | 971 | 4.632373e-01 | 2.185459e+00 | 371.78%|  15.94%
  239s| 11800 |  4028 |  1355k| 114.7 |   231M |  41 |1404 | 831 |1581 | 795k|  6 |  24 | 974 | 4.632373e-01 | 2.185459e+00 | 371.78%|  16.09%
  241s| 11900 |  4058 |  1363k| 114.4 |   231M |  41 |1404 | 831 |1640 | 799k|  7 |  24 | 975 | 4.655567e-01 | 2.185459e+00 | 369.43%|  16.19%
  242s| 12000 |  4074 |  1371k| 114.1 |   233M |  41 |1404 | 831 |1630 | 804k|  2 |  24 | 976 | 4.754067e-01 | 2.185459e+00 | 359.70%|  16.30%
  244s| 12100 |  4104 |  1379k| 113.8 |   235M |  41 |1404 | 831 |1803 | 808k|  5 |  24 | 977 | 4.858498e-01 | 2.185459e+00 | 349.82%|  16.41%
  245s| 12200 |  4120 |  1388k| 113.7 |   235M |  41 |1404 | 831 |1776 | 813k|  8 |  25 | 979 | 4.858498e-01 | 2.185459e+00 | 349.82%|  16.55%
  247s| 12300 |  4144 |  1397k| 113.4 |   235M |  41 |1404 | 831 |1682 | 818k|  2 |  25 | 980 | 5.053202e-01 | 2.185459e+00 | 332.49%|  16.62%
  248s| 12400 |  4166 |  1405k| 113.2 |   236M |  41 |1404 | 831 |1713 | 822k|  4 |  25 | 981 | 5.072782e-01 | 2.185459e+00 | 330.82%|  16.73%
  250s| 12500 |  4182 |  1413k| 112.9 |   240M |  41 |1404 | 831 |1782 | 826k|  6 |  25 | 982 | 5.151813e-01 | 2.185459e+00 | 324.21%|  16.83%
  251s| 12600 |  4206 |  1423k| 112.8 |   241M |  41 |1404 | 831 |1761 | 831k|  9 |  25 | 985 | 5.153533e-01 | 2.185459e+00 | 324.07%|  17.00%
 time | node  | left  |LP iter|LP it/n|mem/heur|mdpt |vars |cons |rows |cuts |sepa|confs|strbr|  dualbound   | primalbound  |  gap   | compl. 
  253s| 12700 |  4232 |  1431k| 112.5 |   241M |  41 |1404 | 831 |1602 | 835k|  2 |  26 | 986 | 5.165494e-01 | 2.185459e+00 | 323.09%|  17.06%
  254s| 12800 |  4252 |  1438k| 112.2 |   242M |  41 |1404 | 831 |1830 | 840k|  8 |  26 | 988 | 5.165494e-01 | 2.185459e+00 | 323.09%|  17.17%
  256s| 12900 |  4276 |  1448k| 112.1 |   245M |  41 |1404 | 831 |1953 | 845k| 10 |  27 | 990 | 5.165495e-01 | 2.185459e+00 | 323.09%|  17.20%
  257s| 13000 |  4290 |  1456k| 111.9 |   245M |  41 |1404 | 831 |1781 | 849k|  3 |  29 | 992 | 5.166832e-01 | 2.185459e+00 | 322.98%|  17.25%
  259s| 13100 |  4306 |  1464k| 111.7 |   246M |  41 |1404 | 831 |1852 | 853k|  3 |  29 | 993 | 5.207133e-01 | 2.185459e+00 | 319.70%|  17.28%
  261s| 13200 |  4334 |  1474k| 111.6 |   247M |  41 |1404 | 831 |1734 | 858k|  3 |  29 | 997 | 5.207137e-01 | 2.185459e+00 | 319.70%|  17.45%
  262s| 13300 |  4362 |  1485k| 111.6 |   249M |  41 |1404 | 831 |1621 | 863k|  2 |  29 | 997 | 5.207137e-01 | 2.185459e+00 | 319.70%|  17.60%
  264s| 13400 |  4396 |  1497k| 111.6 |   253M |  41 |1404 | 831 |1562 | 869k|  3 |  29 | 999 | 5.207139e-01 | 2.185459e+00 | 319.70%|  17.72%
  265s| 13500 |  4406 |  1507k| 111.5 |   254M |  41 |1404 | 831 |1491 | 873k|  4 |  29 |1002 | 5.208081e-01 | 2.185459e+00 | 319.63%|  17.91%
  267s| 13600 |  4442 |  1514k| 111.2 |   255M |  41 |1404 | 831 |1902 | 878k| 12 |  29 |1003 | 5.208100e-01 | 2.185459e+00 | 319.63%|  17.95%
  268s| 13700 |  4458 |  1522k| 111.0 |   255M |  41 |1404 | 831 |1613 | 881k|  2 |  30 |1006 | 5.208100e-01 | 2.185459e+00 | 319.63%|  18.03%
  269s| 13800 |  4470 |  1529k| 110.7 |   257M |  41 |1404 | 831 |1689 | 885k|  1 |  31 |1007 | 5.217872e-01 | 2.185459e+00 | 318.84%|  18.24%
  271s| 13900 |  4492 |  1539k| 110.6 |   257M |  41 |1404 | 831 |1895 | 890k|  2 |  31 |1011 | 5.217872e-01 | 2.185459e+00 | 318.84%|  18.32%
  272s| 14000 |  4506 |  1548k| 110.4 |   258M |  42 |1404 | 831 |1659 | 894k|  2 |  31 |1012 | 5.274072e-01 | 2.185459e+00 | 314.38%|  18.39%
  274s| 14100 |  4522 |  1556k| 110.2 |   259M |  42 |1404 | 831 |1720 | 898k|  2 |  31 |1012 | 5.444188e-01 | 2.185459e+00 | 301.43%|  18.47%
 time | node  | left  |LP iter|LP it/n|mem/heur|mdpt |vars |cons |rows |cuts |sepa|confs|strbr|  dualbound   | primalbound  |  gap   | compl. 
  276s| 14200 |  4550 |  1563k| 110.0 |   260M |  42 |1404 | 831 |1397 | 903k|  2 |  31 |1014 | 5.520816e-01 | 2.185459e+00 | 295.86%|  19.23%
  277s| 14300 |  4586 |  1573k| 109.9 |   260M |  42 |1404 | 831 |1605 | 909k|  9 |  32 |1015 | 5.520816e-01 | 2.185459e+00 | 295.86%|  19.35%
  279s| 14400 |  4612 |  1580k| 109.6 |   263M |  42 |1404 | 831 |1707 | 914k|  3 |  32 |1017 | 5.520825e-01 | 2.185459e+00 | 295.86%|  19.43%
  280s| 14500 |  4642 |  1588k| 109.4 |   264M |  42 |1404 | 831 |1648 | 919k|  2 |  32 |1017 | 5.635803e-01 | 2.185459e+00 | 287.78%|  19.49%
  282s| 14600 |  4670 |  1597k| 109.3 |   265M |  42 |1404 | 831 |1715 | 924k|  2 |  32 |1019 | 5.638049e-01 | 2.185459e+00 | 287.63%|  19.60%
  283s| 14700 |  4686 |  1603k| 109.0 |   265M |  42 |1404 | 831 |1652 | 927k|  3 |  32 |1024 | 5.675335e-01 | 2.185459e+00 | 285.08%|  19.64%
  285s| 14800 |  4716 |  1613k| 108.9 |   267M |  42 |1404 | 831 |1742 | 931k|  3 |  32 |1024 | 5.745040e-01 | 2.185459e+00 | 280.41%|  19.69%
  286s| 14900 |  4734 |  1622k| 108.7 |   267M |  42 |1404 | 831 |1648 | 935k|  2 |  32 |1024 | 5.754687e-01 | 2.185459e+00 | 279.77%|  19.73%
  287s| 15000 |  4750 |  1629k| 108.5 |   268M |  42 |1404 | 831 |1808 | 940k|  3 |  32 |1032 | 5.754774e-01 | 2.185459e+00 | 279.76%|  19.74%
  289s| 15100 |  4770 |  1637k| 108.3 |   269M |  42 |1404 | 831 |1792 | 944k|  8 |  32 |1033 | 5.761857e-01 | 2.185459e+00 | 279.30%|  19.76%
  290s| 15200 |  4790 |  1648k| 108.3 |   270M |  42 |1404 | 831 |1803 | 948k|  2 |  32 |1035 | 5.811565e-01 | 2.185459e+00 | 276.05%|  19.79%
  292s| 15300 |  4812 |  1657k| 108.2 |   270M |  42 |1404 | 831 |1711 | 953k|  0 |  32 |1037 | 5.969428e-01 | 2.185459e+00 | 266.11%|  19.89%
  294s| 15400 |  4848 |  1668k| 108.2 |   272M |  42 |1404 | 831 |1956 | 960k| 11 |  33 |1043 | 5.970844e-01 | 2.185459e+00 | 266.02%|  19.91%
  295s| 15500 |  4872 |  1677k| 108.1 |   272M |  42 |1404 | 831 |1781 | 964k|  9 |  33 |1048 | 6.055160e-01 | 2.185459e+00 | 260.93%|  19.97%
  297s| 15600 |  4908 |  1686k| 108.0 |   272M |  42 |1404 | 831 |1674 | 969k|  1 |  33 |1048 | 6.055161e-01 | 2.185459e+00 | 260.93%|  19.98%
 time | node  | left  |LP iter|LP it/n|mem/heur|mdpt |vars |cons |rows |cuts |sepa|confs|strbr|  dualbound   | primalbound  |  gap   | compl. 
  298s| 15700 |  4936 |  1694k| 107.8 |   273M |  42 |1404 | 831 |1769 | 973k|  2 |  33 |1049 | 6.059432e-01 | 2.185459e+00 | 260.67%|  20.15%
  300s| 15800 |  4948 |  1703k| 107.7 |   274M |  42 |1404 | 831 |1829 | 977k|  9 |  34 |1054 | 6.113610e-01 | 2.185459e+00 | 257.47%|  20.27%

SCIP Status        : solving was interrupted [time limit reached]
Solving Time (sec) : 300.00
Solving Nodes      : 15822
Primal Bound       : +2.18545918601648e+00 (14 solutions)
Dual Bound         : +6.11360966303869e-01
Gap                : 257.47 %


--- Reading solution for model GAMS_MODEL
***
*** Solver did not provide marginals for model GAMS_MODEL
***
--- Executing after solve: elapsed 0:05:00.283
--- model.gms(2802) 3 Mb
--- model.gms(4105) 5 Mb
--- Putfile results /local/scratch/a/sgusev/repos/k_means/data/gams_scip_gdp.hull/no_mode/2026-02-15_23-44-58/original/results.dat
--- Putfile statresults /local/scratch/a/sgusev/repos/k_means/data/gams_scip_gdp.hull/no_mode/2026-02-15_23-44-58/original/resultsstat.dat
*** Status: Normal completion
--- Job model.gms Stop 02/15/26 23:49:58 elapsed 0:05:00.285
Original problem solved. Time taken: 300.9127345085144 seconds
Original objective value: 2.185459186016479
